136 126 29 178 87 47 102 94 5 172 142 71 127 167 124 52 184 115 14 158 3 119 109 8 28 45 193 146 181 34 179 96 13 131 57 86 176 89 130 41 10 39 108 26 143 95 138 199 151 58 63 6 166 7 33 21 61 54 78 170 25 100 194 132 43 32 51 122 141 144 198 49 105 60 192 162 66 69 156 187 133 50 53 4 88 99 197 1 72 22 113 161 85 106 134 67 104 195 84 11 12 111 75 82 155 147 80 120 185 59 118 16 15 145 19 121 9 165 42 186 68 76 31 125 24 114 0 152 110 137 70 18 117 180 64 79 97 164 139 159 191 169 135 81 40 183 175 73 189 74 154 190 91 123 98 107 20 196 171 177 83 55 77 112 129 128 160 36 48 44 173 148 101 46 65 153 168 56 17 188 140 92 150 116 157 38 149 93 182 103 37 90 2 174 27 23 62 35 163 30 

